certificates/rado_a5_c12_N11.cnf
c Rad2 upper bound instance: x1 + 5*x2 - x3 = 12, interval [1,11]
p cnf 11 46
1 3 4 0
-1 -3 -4 0
1 4 9 0
-1 -4 -9 0
2 3 5 0
-2 -3 -5 0
2 4 10 0
-2 -4 -10 0
1 2 3 0
-1 -2 -3 0
3 6 0
-3 -6 0
3 4 11 0
-3 -4 -11 0
2 4 0
-2 -4 0
3 4 7 0
-3 -4 -7 0
3 5 8 0
-3 -5 -8 0
2 4 6 0
-2 -4 -6 0
3 6 9 0
-3 -6 -9 0
2 5 7 0
-2 -5 -7 0
3 7 10 0
-3 -7 -10 0
1 8 0
-1 -8 0
2 6 8 0
-2 -6 -8 0
3 8 11 0
-3 -8 -11 0
1 2 9 0
-1 -2 -9 0
2 7 9 0
-2 -7 -9 0
1 3 10 0
-1 -3 -10 0
2 8 10 0
-2 -8 -10 0
1 4 11 0
-1 -4 -11 0
2 9 11 0
-2 -9 -11 0
