certificates/rado_a5_c12_N11.drat
-9 -11 0
d -2 -9 -11 0
-4 -10 -11 0
-10 -11 0
d -4 -10 -11 0
4 -11 0
-11 0
9 0
4 0
-1 0
-2 0
8 0
3 0
-5 0
-6 0
-7 0
0
